p edge 700 3355
e 1 2 1
e 1 700 1
e 1 3 1
e 1 699 1
e 1 4 1
e 1 698 1
e 1 384 1
e 1 396 1
e 1 22 1
e 1 484 1
e 1 63 1
e 1 172 1
e 2 3 1
e 2 4 1
e 2 700 1
e 2 5 1
e 2 699 1
e 2 234 1
e 2 529 1
e 2 119 1
e 2 372 1
e 3 4 1
e 3 5 1
e 3 6 1
e 3 700 1
e 3 246 1
e 3 404 1
e 3 329 1
e 3 330 1
e 3 627 1
e 4 5 1
e 4 6 1
e 4 7 1
e 4 485 1
e 4 490 1
e 4 104 1
e 4 123 1
e 5 6 1
e 5 7 1
e 5 8 1
e 5 496 1
e 5 207 1
e 5 464 1
e 5 586 1
e 6 7 1
e 6 8 1
e 6 9 1
e 6 55 1
e 6 470 1
e 6 432 1
e 6 515 1
e 7 8 1
e 7 9 1
e 7 10 1
e 7 73 1
e 7 30 1
e 7 117 1
e 8 9 1
e 8 10 1
e 8 11 1
e 8 508 1
e 8 72 1
e 8 639 1
e 9 10 1
e 9 11 1
e 9 12 1
e 9 176 1
e 9 611 1
e 9 503 1
e 10 11 1
e 10 12 1
e 10 13 1
e 10 413 1
e 10 24 1
e 10 673 1
e 11 12 1
e 11 13 1
e 11 14 1
e 11 264 1
e 11 381 1
e 12 13 1
e 12 14 1
e 12 15 1
e 12 610 1
e 12 35 1
e 12 401 1
e 12 418 1
e 13 14 1
e 13 15 1
e 13 16 1
e 13 280 1
e 13 339 1
e 13 341 1
e 14 15 1
e 14 16 1
e 14 17 1
e 14 648 1
e 14 488 1
e 15 16 1
e 15 17 1
e 15 18 1
e 15 479 1
e 15 676 1
e 15 451 1
e 16 17 1
e 16 18 1
e 16 19 1
e 16 215 1
e 16 279 1
e 16 333 1
e 17 18 1
e 17 19 1
e 17 20 1
e 17 246 1
e 17 244 1
e 17 467 1
e 17 594 1
e 18 19 1
e 18 20 1
e 18 21 1
e 18 294 1
e 18 563 1
e 18 84 1
e 19 20 1
e 19 21 1
e 19 22 1
e 19 393 1
e 19 421 1
e 20 21 1
e 20 22 1
e 20 23 1
e 20 209 1
e 20 309 1
e 20 65 1
e 21 22 1
e 21 23 1
e 21 24 1
e 21 34 1
e 21 318 1
e 21 121 1
e 22 23 1
e 22 24 1
e 22 25 1
e 22 365 1
e 22 421 1
e 22 429 1
e 23 24 1
e 23 25 1
e 23 26 1
e 23 691 1
e 23 688 1
e 23 640 1
e 23 625 1
e 24 25 1
e 24 26 1
e 24 27 1
e 25 26 1
e 25 27 1
e 25 28 1
e 25 203 1
e 25 618 1
e 26 27 1
e 26 28 1
e 26 29 1
e 26 425 1
e 26 673 1
e 26 44 1
e 26 126 1
e 26 243 1
e 26 674 1
e 27 28 1
e 27 29 1
e 27 30 1
e 27 250 1
e 27 484 1
e 28 29 1
e 28 30 1
e 28 31 1
e 28 283 1
e 29 30 1
e 29 31 1
e 29 32 1
e 29 293 1
e 29 318 1
e 29 398 1
e 29 637 1
e 30 31 1
e 30 32 1
e 30 33 1
e 30 109 1
e 30 300 1
e 30 332 1
e 30 452 1
e 31 32 1
e 31 33 1
e 31 34 1
e 31 117 1
e 31 477 1
e 32 33 1
e 32 34 1
e 32 35 1
e 32 152 1
e 32 281 1
e 33 34 1
e 33 35 1
e 33 36 1
e 33 533 1
e 33 196 1
e 33 96 1
e 33 320 1
e 33 565 1
e 33 650 1
e 34 35 1
e 34 36 1
e 34 37 1
e 34 582 1
e 34 170 1
e 34 108 1
e 34 422 1
e 34 660 1
e 35 36 1
e 35 37 1
e 35 38 1
e 35 637 1
e 35 86 1
e 35 141 1
e 35 255 1
e 35 459 1
e 35 497 1
e 36 37 1
e 36 38 1
e 36 39 1
e 36 388 1
e 36 292 1
e 36 520 1
e 36 55 1
e 37 38 1
e 37 39 1
e 37 40 1
e 37 477 1
e 37 685 1
e 38 39 1
e 38 40 1
e 38 41 1
e 38 610 1
e 38 111 1
e 38 229 1
e 38 243 1
e 38 632 1
e 39 40 1
e 39 41 1
e 39 42 1
e 39 603 1
e 39 661 1
e 40 41 1
e 40 42 1
e 40 43 1
e 40 338 1
e 40 425 1
e 41 42 1
e 41 43 1
e 41 44 1
e 41 661 1
e 41 305 1
e 41 344 1
e 42 43 1
e 42 44 1
e 42 45 1
e 42 115 1
e 42 674 1
e 42 671 1
e 43 44 1
e 43 45 1
e 43 46 1
e 43 553 1
e 43 178 1
e 43 289 1
e 43 377 1
e 43 560 1
e 44 45 1
e 44 46 1
e 44 47 1
e 44 492 1
e 44 426 1
e 44 194 1
e 44 371 1
e 44 392 1
e 44 459 1
e 44 600 1
e 45 46 1
e 45 47 1
e 45 48 1
e 45 520 1
e 45 317 1
e 45 215 1
e 45 569 1
e 45 655 1
e 46 47 1
e 46 48 1
e 46 49 1
e 46 613 1
e 46 262 1
e 46 310 1
e 47 48 1
e 47 49 1
e 47 50 1
e 47 683 1
e 47 53 1
e 47 448 1
e 47 621 1
e 48 49 1
e 48 50 1
e 48 51 1
e 48 440 1
e 48 588 1
e 48 274 1
e 48 362 1
e 48 470 1
e 48 540 1
e 49 50 1
e 49 51 1
e 49 52 1
e 49 458 1
e 49 272 1
e 49 646 1
e 50 51 1
e 50 52 1
e 50 53 1
e 50 577 1
e 50 85 1
e 50 260 1
e 50 398 1
e 51 52 1
e 51 53 1
e 51 54 1
e 51 567 1
e 51 121 1
e 51 178 1
e 52 53 1
e 52 54 1
e 52 55 1
e 52 553 1
e 52 181 1
e 53 54 1
e 53 55 1
e 53 56 1
e 53 180 1
e 53 573 1
e 53 155 1
e 53 427 1
e 53 525 1
e 54 55 1
e 54 56 1
e 54 57 1
e 54 612 1
e 55 56 1
e 55 57 1
e 55 58 1
e 55 455 1
e 55 466 1
e 55 151 1
e 55 514 1
e 56 57 1
e 56 58 1
e 56 59 1
e 56 279 1
e 56 286 1
e 56 124 1
e 56 535 1
e 57 58 1
e 57 59 1
e 57 60 1
e 57 633 1
e 57 339 1
e 57 117 1
e 57 311 1
e 57 494 1
e 58 59 1
e 58 60 1
e 58 61 1
e 58 600 1
e 58 152 1
e 58 259 1
e 58 358 1
e 59 60 1
e 59 61 1
e 59 62 1
e 59 526 1
e 60 61 1
e 60 62 1
e 60 63 1
e 60 375 1
e 60 325 1
e 60 132 1
e 60 111 1
e 60 357 1
e 60 370 1
e 61 62 1
e 61 63 1
e 61 64 1
e 61 392 1
e 61 587 1
e 61 288 1
e 61 421 1
e 61 485 1
e 62 63 1
e 62 64 1
e 62 65 1
e 62 594 1
e 62 386 1
e 62 414 1
e 62 478 1
e 62 495 1
e 62 499 1
e 63 64 1
e 63 65 1
e 63 66 1
e 63 603 1
e 63 286 1
e 63 302 1
e 64 65 1
e 64 66 1
e 64 67 1
e 64 534 1
e 64 281 1
e 64 463 1
e 64 393 1
e 64 520 1
e 64 604 1
e 65 66 1
e 65 67 1
e 65 68 1
e 65 615 1
e 65 187 1
e 65 293 1
e 65 381 1
e 66 67 1
e 66 68 1
e 66 69 1
e 66 686 1
e 66 561 1
e 66 102 1
e 66 209 1
e 66 576 1
e 66 646 1
e 67 68 1
e 67 69 1
e 67 70 1
e 67 391 1
e 68 69 1
e 68 70 1
e 68 71 1
e 68 133 1
e 68 260 1
e 68 581 1
e 69 70 1
e 69 71 1
e 69 72 1
e 69 492 1
e 69 455 1
e 69 563 1
e 70 71 1
e 70 72 1
e 70 73 1
e 70 622 1
e 70 648 1
e 70 283 1
e 70 475 1
e 70 586 1
e 70 623 1
e 71 72 1
e 71 73 1
e 71 74 1
e 71 102 1
e 71 164 1
e 72 73 1
e 72 74 1
e 72 75 1
e 72 495 1
e 72 538 1
e 72 106 1
e 72 138 1
e 73 74 1
e 73 75 1
e 73 76 1
e 73 186 1
e 73 360 1
e 73 664 1
e 73 652 1
e 73 678 1
e 74 75 1
e 74 76 1
e 74 77 1
e 74 506 1
e 74 533 1
e 74 156 1
e 74 550 1
e 74 562 1
e 75 76 1
e 75 77 1
e 75 78 1
e 75 425 1
e 75 212 1
e 75 293 1
e 76 77 1
e 76 78 1
e 76 79 1
e 76 518 1
e 76 578 1
e 76 517 1
e 77 78 1
e 77 79 1
e 77 80 1
e 77 490 1
e 77 568 1
e 78 79 1
e 78 80 1
e 78 81 1
e 78 111 1
e 78 108 1
e 78 99 1
e 78 202 1
e 78 236 1
e 78 391 1
e 78 428 1
e 78 483 1
e 79 80 1
e 79 81 1
e 79 82 1
e 79 643 1
e 79 593 1
e 79 658 1
e 80 81 1
e 80 82 1
e 80 83 1
e 80 363 1
e 80 346 1
e 80 526 1
e 80 321 1
e 80 480 1
e 81 82 1
e 81 83 1
e 81 84 1
e 81 683 1
e 81 606 1
e 81 570 1
e 81 460 1
e 82 83 1
e 82 84 1
e 82 85 1
e 82 249 1
e 82 485 1
e 82 334 1
e 82 346 1
e 82 633 1
e 83 84 1
e 83 85 1
e 83 86 1
e 83 88 1
e 84 85 1
e 84 86 1
e 84 87 1
e 84 334 1
e 85 86 1
e 85 87 1
e 85 88 1
e 85 437 1
e 85 330 1
e 85 210 1
e 85 284 1
e 85 640 1
e 86 87 1
e 86 88 1
e 86 89 1
e 86 403 1
e 87 88 1
e 87 89 1
e 87 90 1
e 87 122 1
e 88 89 1
e 88 90 1
e 88 91 1
e 88 283 1
e 88 226 1
e 88 165 1
e 88 585 1
e 88 588 1
e 89 90 1
e 89 91 1
e 89 92 1
e 89 114 1
e 90 91 1
e 90 92 1
e 90 93 1
e 90 546 1
e 90 168 1
e 90 391 1
e 90 412 1
e 91 92 1
e 91 93 1
e 91 94 1
e 91 145 1
e 91 105 1
e 92 93 1
e 92 94 1
e 92 95 1
e 92 604 1
e 92 466 1
e 92 494 1
e 93 94 1
e 93 95 1
e 93 96 1
e 93 260 1
e 93 408 1
e 94 95 1
e 94 96 1
e 94 97 1
e 94 227 1
e 94 132 1
e 94 304 1
e 94 451 1
e 94 463 1
e 95 96 1
e 95 97 1
e 95 98 1
e 95 657 1
e 95 500 1
e 95 432 1
e 95 696 1
e 96 97 1
e 96 98 1
e 96 99 1
e 96 198 1
e 96 374 1
e 96 396 1
e 97 98 1
e 97 99 1
e 97 100 1
e 97 376 1
e 97 536 1
e 98 99 1
e 98 100 1
e 98 101 1
e 98 481 1
e 98 503 1
e 98 110 1
e 98 484 1
e 99 100 1
e 99 101 1
e 99 102 1
e 99 163 1
e 99 432 1
e 99 683 1
e 100 101 1
e 100 102 1
e 100 103 1
e 100 140 1
e 100 132 1
e 100 230 1
e 100 578 1
e 101 102 1
e 101 103 1
e 101 104 1
e 101 606 1
e 101 604 1
e 101 591 1
e 101 615 1
e 101 696 1
e 102 103 1
e 102 104 1
e 102 105 1
e 103 104 1
e 103 105 1
e 103 106 1
e 103 667 1
e 103 281 1
e 104 105 1
e 104 106 1
e 104 107 1
e 104 176 1
e 104 432 1
e 104 149 1
e 104 647 1
e 105 106 1
e 105 107 1
e 105 108 1
e 105 639 1
e 105 191 1
e 105 284 1
e 105 656 1
e 106 107 1
e 106 108 1
e 106 109 1
e 106 278 1
e 106 699 1
e 107 108 1
e 107 109 1
e 107 110 1
e 107 306 1
e 107 693 1
e 107 350 1
e 107 619 1
e 108 109 1
e 108 110 1
e 108 111 1
e 108 659 1
e 108 612 1
e 108 697 1
e 109 110 1
e 109 111 1
e 109 112 1
e 109 366 1
e 110 111 1
e 110 112 1
e 110 113 1
e 110 324 1
e 110 299 1
e 110 585 1
e 110 668 1
e 110 683 1
e 111 112 1
e 111 113 1
e 111 114 1
e 111 188 1
e 111 160 1
e 112 113 1
e 112 114 1
e 112 115 1
e 112 180 1
e 112 363 1
e 112 136 1
e 112 466 1
e 113 114 1
e 113 115 1
e 113 116 1
e 113 257 1
e 113 211 1
e 113 387 1
e 113 559 1
e 114 115 1
e 114 116 1
e 114 117 1
e 114 312 1
e 114 573 1
e 114 443 1
e 114 693 1
e 115 116 1
e 115 117 1
e 115 118 1
e 115 565 1
e 115 402 1
e 116 117 1
e 116 118 1
e 116 119 1
e 116 452 1
e 116 340 1
e 116 563 1
e 117 118 1
e 117 119 1
e 117 120 1
e 117 387 1
e 118 119 1
e 118 120 1
e 118 121 1
e 118 188 1
e 118 297 1
e 118 288 1
e 118 394 1
e 118 407 1
e 119 120 1
e 119 121 1
e 119 122 1
e 119 365 1
e 119 303 1
e 119 662 1
e 120 121 1
e 120 122 1
e 120 123 1
e 120 573 1
e 121 122 1
e 121 123 1
e 121 124 1
e 121 637 1
e 121 245 1
e 121 217 1
e 122 123 1
e 122 124 1
e 122 125 1
e 122 664 1
e 123 124 1
e 123 125 1
e 123 126 1
e 123 630 1
e 123 222 1
e 123 254 1
e 123 653 1
e 124 125 1
e 124 126 1
e 124 127 1
e 124 605 1
e 124 239 1
e 124 170 1
e 125 126 1
e 125 127 1
e 125 128 1
e 125 432 1
e 126 127 1
e 126 128 1
e 126 129 1
e 126 628 1
e 126 325 1
e 127 128 1
e 127 129 1
e 127 130 1
e 127 667 1
e 127 317 1
e 127 342 1
e 127 488 1
e 128 129 1
e 128 130 1
e 128 131 1
e 128 355 1
e 129 130 1
e 129 131 1
e 129 132 1
e 129 396 1
e 129 362 1
e 129 659 1
e 129 621 1
e 130 131 1
e 130 132 1
e 130 133 1
e 130 644 1
e 130 134 1
e 130 408 1
e 130 679 1
e 131 132 1
e 131 133 1
e 131 134 1
e 131 169 1
e 131 551 1
e 131 689 1
e 132 133 1
e 132 134 1
e 132 135 1
e 132 677 1
e 132 276 1
e 132 419 1
e 132 652 1
e 133 134 1
e 133 135 1
e 133 136 1
e 133 524 1
e 133 533 1
e 133 684 1
e 134 135 1
e 134 136 1
e 134 137 1
e 134 685 1
e 134 143 1
e 134 538 1
e 135 136 1
e 135 137 1
e 135 138 1
e 135 380 1
e 135 377 1
e 135 528 1
e 136 137 1
e 136 138 1
e 136 139 1
e 136 197 1
e 136 548 1
e 136 293 1
e 136 682 1
e 137 138 1
e 137 139 1
e 137 140 1
e 137 456 1
e 137 689 1
e 137 144 1
e 137 493 1
e 137 508 1
e 138 139 1
e 138 140 1
e 138 141 1
e 138 693 1
e 138 279 1
e 138 363 1
e 138 566 1
e 139 140 1
e 139 141 1
e 139 142 1
e 139 595 1
e 139 258 1
e 140 141 1
e 140 142 1
e 140 143 1
e 140 622 1
e 140 252 1
e 140 524 1
e 141 142 1
e 141 143 1
e 141 144 1
e 141 422 1
e 141 693 1
e 141 396 1
e 141 662 1
e 142 143 1
e 142 144 1
e 142 145 1
e 142 674 1
e 142 637 1
e 142 379 1
e 142 640 1
e 143 144 1
e 143 145 1
e 143 146 1
e 143 677 1
e 143 297 1
e 143 424 1
e 143 557 1
e 144 145 1
e 144 146 1
e 144 147 1
e 144 313 1
e 144 557 1
e 145 146 1
e 145 147 1
e 145 148 1
e 146 147 1
e 146 148 1
e 146 149 1
e 146 406 1
e 146 400 1
e 147 148 1
e 147 149 1
e 147 150 1
e 147 189 1
e 147 416 1
e 147 483 1
e 147 537 1
e 148 149 1
e 148 150 1
e 148 151 1
e 148 474 1
e 148 198 1
e 148 157 1
e 149 150 1
e 149 151 1
e 149 152 1
e 149 697 1
e 149 405 1
e 149 347 1
e 150 151 1
e 150 152 1
e 150 153 1
e 150 290 1
e 150 226 1
e 150 302 1
e 150 476 1
e 151 152 1
e 151 153 1
e 151 154 1
e 151 267 1
e 151 281 1
e 152 153 1
e 152 154 1
e 152 155 1
e 152 230 1
e 153 154 1
e 153 155 1
e 153 156 1
e 153 192 1
e 153 613 1
e 153 278 1
e 153 305 1
e 153 683 1
e 154 155 1
e 154 156 1
e 154 157 1
e 154 691 1
e 154 323 1
e 155 156 1
e 155 157 1
e 155 158 1
e 155 290 1
e 155 198 1
e 155 577 1
e 156 157 1
e 156 158 1
e 156 159 1
e 156 336 1
e 156 445 1
e 157 158 1
e 157 159 1
e 157 160 1
e 157 285 1
e 157 466 1
e 157 192 1
e 157 579 1
e 158 159 1
e 158 160 1
e 158 161 1
e 158 436 1
e 158 531 1
e 158 370 1
e 158 650 1
e 159 160 1
e 159 161 1
e 159 162 1
e 159 502 1
e 159 561 1
e 159 480 1
e 160 161 1
e 160 162 1
e 160 163 1
e 160 534 1
e 161 162 1
e 161 163 1
e 161 164 1
e 161 638 1
e 161 380 1
e 161 413 1
e 161 437 1
e 162 163 1
e 162 164 1
e 162 165 1
e 162 541 1
e 162 635 1
e 162 500 1
e 163 164 1
e 163 165 1
e 163 166 1
e 163 693 1
e 163 466 1
e 164 165 1
e 164 166 1
e 164 167 1
e 164 658 1
e 165 166 1
e 165 167 1
e 165 168 1
e 165 355 1
e 165 649 1
e 165 213 1
e 166 167 1
e 166 168 1
e 166 169 1
e 166 611 1
e 167 168 1
e 167 169 1
e 167 170 1
e 167 618 1
e 168 169 1
e 168 170 1
e 168 171 1
e 168 346 1
e 169 170 1
e 169 171 1
e 169 172 1
e 169 403 1
e 169 527 1
e 170 171 1
e 170 172 1
e 170 173 1
e 170 434 1
e 171 172 1
e 171 173 1
e 171 174 1
e 171 558 1
e 171 468 1
e 171 478 1
e 171 499 1
e 171 552 1
e 172 173 1
e 172 174 1
e 172 175 1
e 172 537 1
e 172 589 1
e 173 174 1
e 173 175 1
e 173 176 1
e 173 664 1
e 173 357 1
e 173 568 1
e 174 175 1
e 174 176 1
e 174 177 1
e 174 346 1
e 174 612 1
e 174 489 1
e 174 654 1
e 175 176 1
e 175 177 1
e 175 178 1
e 175 665 1
e 176 177 1
e 176 178 1
e 176 179 1
e 176 297 1
e 176 368 1
e 177 178 1
e 177 179 1
e 177 180 1
e 177 650 1
e 177 330 1
e 177 354 1
e 177 594 1
e 178 179 1
e 178 180 1
e 178 181 1
e 178 528 1
e 178 414 1
e 179 180 1
e 179 181 1
e 179 182 1
e 179 385 1
e 179 251 1
e 179 474 1
e 180 181 1
e 180 182 1
e 180 183 1
e 180 281 1
e 180 579 1
e 181 182 1
e 181 183 1
e 181 184 1
e 181 615 1
e 181 400 1
e 181 403 1
e 182 183 1
e 182 184 1
e 182 185 1
e 182 465 1
e 182 501 1
e 182 413 1
e 183 184 1
e 183 185 1
e 183 186 1
e 183 533 1
e 183 431 1
e 184 185 1
e 184 186 1
e 184 187 1
e 184 367 1
e 184 473 1
e 185 186 1
e 185 187 1
e 185 188 1
e 185 480 1
e 185 199 1
e 186 187 1
e 186 188 1
e 186 189 1
e 186 232 1
e 186 256 1
e 186 544 1
e 187 188 1
e 187 189 1
e 187 190 1
e 187 689 1
e 187 333 1
e 187 335 1
e 187 637 1
e 188 189 1
e 188 190 1
e 188 191 1
e 188 446 1
e 188 255 1
e 189 190 1
e 189 191 1
e 189 192 1
e 189 299 1
e 189 616 1
e 190 191 1
e 190 192 1
e 190 193 1
e 190 199 1
e 190 313 1
e 190 569 1
e 190 582 1
e 191 192 1
e 191 193 1
e 191 194 1
e 191 334 1
e 192 193 1
e 192 194 1
e 192 195 1
e 192 578 1
e 192 432 1
e 193 194 1
e 193 195 1
e 193 196 1
e 193 322 1
e 193 271 1
e 193 278 1
e 193 388 1
e 194 195 1
e 194 196 1
e 194 197 1
e 194 226 1
e 195 196 1
e 195 197 1
e 195 198 1
e 195 657 1
e 195 333 1
e 195 690 1
e 196 197 1
e 196 198 1
e 196 199 1
e 196 225 1
e 196 505 1
e 196 615 1
e 196 657 1
e 197 198 1
e 197 199 1
e 197 200 1
e 197 472 1
e 197 487 1
e 198 199 1
e 198 200 1
e 198 201 1
e 198 486 1
e 199 200 1
e 199 201 1
e 199 202 1
e 199 498 1
e 199 481 1
e 199 652 1
e 200 201 1
e 200 202 1
e 200 203 1
e 200 535 1
e 200 494 1
e 200 352 1
e 200 430 1
e 200 691 1
e 201 202 1
e 201 203 1
e 201 204 1
e 201 315 1
e 201 270 1
e 201 668 1
e 202 203 1
e 202 204 1
e 202 205 1
e 202 415 1
e 202 355 1
e 202 233 1
e 203 204 1
e 203 205 1
e 203 206 1
e 203 667 1
e 203 314 1
e 203 613 1
e 204 205 1
e 204 206 1
e 204 207 1
e 204 438 1
e 205 206 1
e 205 207 1
e 205 208 1
e 205 264 1
e 205 351 1
e 206 207 1
e 206 208 1
e 206 209 1
e 206 226 1
e 206 462 1
e 206 303 1
e 206 539 1
e 206 589 1
e 206 660 1
e 207 208 1
e 207 209 1
e 207 210 1
e 207 261 1
e 207 470 1
e 207 531 1
e 208 209 1
e 208 210 1
e 208 211 1
e 208 651 1
e 209 210 1
e 209 211 1
e 209 212 1
e 209 412 1
e 210 211 1
e 210 212 1
e 210 213 1
e 210 516 1
e 211 212 1
e 211 213 1
e 211 214 1
e 211 603 1
e 211 558 1
e 211 405 1
e 211 454 1
e 212 213 1
e 212 214 1
e 212 215 1
e 212 300 1
e 212 653 1
e 213 214 1
e 213 215 1
e 213 216 1
e 213 665 1
e 213 631 1
e 213 666 1
e 214 215 1
e 214 216 1
e 214 217 1
e 214 626 1
e 214 630 1
e 215 216 1
e 215 217 1
e 215 218 1
e 216 217 1
e 216 218 1
e 216 219 1
e 216 274 1
e 216 636 1
e 217 218 1
e 217 219 1
e 217 220 1
e 217 383 1
e 217 562 1
e 217 312 1
e 218 219 1
e 218 220 1
e 218 221 1
e 219 220 1
e 219 221 1
e 219 222 1
e 219 316 1
e 220 221 1
e 220 222 1
e 220 223 1
e 220 543 1
e 221 222 1
e 221 223 1
e 221 224 1
e 221 614 1
e 221 563 1
e 221 391 1
e 221 458 1
e 222 223 1
e 222 224 1
e 222 225 1
e 222 638 1
e 222 256 1
e 222 350 1
e 222 447 1
e 223 224 1
e 223 225 1
e 223 226 1
e 223 457 1
e 223 585 1
e 223 564 1
e 224 225 1
e 224 226 1
e 224 227 1
e 224 460 1
e 225 226 1
e 225 227 1
e 225 228 1
e 225 690 1
e 225 459 1
e 225 583 1
e 226 227 1
e 226 228 1
e 226 229 1
e 227 228 1
e 227 229 1
e 227 230 1
e 227 399 1
e 227 627 1
e 227 453 1
e 228 229 1
e 228 230 1
e 228 231 1
e 228 542 1
e 228 605 1
e 228 486 1
e 228 336 1
e 228 428 1
e 229 230 1
e 229 231 1
e 229 232 1
e 229 584 1
e 230 231 1
e 230 232 1
e 230 233 1
e 230 371 1
e 230 373 1
e 231 232 1
e 231 233 1
e 231 234 1
e 231 493 1
e 231 246 1
e 231 459 1
e 231 554 1
e 232 233 1
e 232 234 1
e 232 235 1
e 232 243 1
e 232 588 1
e 232 617 1
e 232 672 1
e 233 234 1
e 233 235 1
e 233 236 1
e 233 359 1
e 233 666 1
e 234 235 1
e 234 236 1
e 234 237 1
e 234 464 1
e 234 248 1
e 235 236 1
e 235 237 1
e 235 238 1
e 235 393 1
e 235 314 1
e 235 478 1
e 236 237 1
e 236 238 1
e 236 239 1
e 236 249 1
e 236 311 1
e 237 238 1
e 237 239 1
e 237 240 1
e 237 313 1
e 238 239 1
e 238 240 1
e 238 241 1
e 238 399 1
e 238 354 1
e 238 299 1
e 238 515 1
e 239 240 1
e 239 241 1
e 239 242 1
e 239 642 1
e 240 241 1
e 240 242 1
e 240 243 1
e 241 242 1
e 241 243 1
e 241 244 1
e 241 367 1
e 241 511 1
e 241 250 1
e 241 294 1
e 241 433 1
e 241 450 1
e 241 632 1
e 241 644 1
e 242 243 1
e 242 244 1
e 242 245 1
e 242 511 1
e 242 651 1
e 243 244 1
e 243 245 1
e 243 246 1
e 243 269 1
e 243 552 1
e 244 245 1
e 244 246 1
e 244 247 1
e 244 654 1
e 244 383 1
e 245 246 1
e 245 247 1
e 245 248 1
e 245 361 1
e 245 420 1
e 246 247 1
e 246 248 1
e 246 249 1
e 246 356 1
e 246 309 1
e 247 248 1
e 247 249 1
e 247 250 1
e 247 562 1
e 247 541 1
e 248 249 1
e 248 250 1
e 248 251 1
e 248 628 1
e 248 542 1
e 249 250 1
e 249 251 1
e 249 252 1
e 249 360 1
e 249 541 1
e 249 571 1
e 250 251 1
e 250 252 1
e 250 253 1
e 250 489 1
e 250 567 1
e 251 252 1
e 251 253 1
e 251 254 1
e 251 528 1
e 252 253 1
e 252 254 1
e 252 255 1
e 252 546 1
e 253 254 1
e 253 255 1
e 253 256 1
e 253 452 1
e 253 562 1
e 253 273 1
e 254 255 1
e 254 256 1
e 254 257 1
e 254 434 1
e 254 320 1
e 255 256 1
e 255 257 1
e 255 258 1
e 255 399 1
e 255 499 1
e 256 257 1
e 256 258 1
e 256 259 1
e 256 655 1
e 257 258 1
e 257 259 1
e 257 260 1
e 257 653 1
e 257 431 1
e 257 306 1
e 258 259 1
e 258 260 1
e 258 261 1
e 258 263 1
e 258 480 1
e 258 599 1
e 259 260 1
e 259 261 1
e 259 262 1
e 259 332 1
e 259 639 1
e 260 261 1
e 260 262 1
e 260 263 1
e 260 329 1
e 260 337 1
e 260 486 1
e 261 262 1
e 261 263 1
e 261 264 1
e 261 566 1
e 261 648 1
e 262 263 1
e 262 264 1
e 262 265 1
e 262 409 1
e 262 500 1
e 262 511 1
e 263 264 1
e 263 265 1
e 263 266 1
e 264 265 1
e 264 266 1
e 264 267 1
e 264 292 1
e 264 625 1
e 265 266 1
e 265 267 1
e 265 268 1
e 265 553 1
e 265 414 1
e 265 450 1
e 265 602 1
e 266 267 1
e 266 268 1
e 266 269 1
e 266 509 1
e 267 268 1
e 267 269 1
e 267 270 1
e 267 490 1
e 267 326 1
e 267 369 1
e 267 461 1
e 268 269 1
e 268 270 1
e 268 271 1
e 268 626 1
e 269 270 1
e 269 271 1
e 269 272 1
e 269 480 1
e 269 613 1
e 270 271 1
e 270 272 1
e 270 273 1
e 270 693 1
e 271 272 1
e 271 273 1
e 271 274 1
e 271 581 1
e 271 672 1
e 271 395 1
e 272 273 1
e 272 274 1
e 272 275 1
e 272 697 1
e 272 482 1
e 272 620 1
e 273 274 1
e 273 275 1
e 273 276 1
e 273 442 1
e 273 305 1
e 273 611 1
e 274 275 1
e 274 276 1
e 274 277 1
e 274 426 1
e 275 276 1
e 275 277 1
e 275 278 1
e 275 583 1
e 275 501 1
e 275 416 1
e 275 663 1
e 276 277 1
e 276 278 1
e 276 279 1
e 276 302 1
e 276 457 1
e 276 307 1
e 277 278 1
e 277 279 1
e 277 280 1
e 277 611 1
e 277 666 1
e 277 689 1
e 278 279 1
e 278 280 1
e 278 281 1
e 278 582 1
e 278 542 1
e 279 280 1
e 279 281 1
e 279 282 1
e 279 395 1
e 280 281 1
e 280 282 1
e 280 283 1
e 280 655 1
e 280 455 1
e 281 282 1
e 281 283 1
e 281 284 1
e 282 283 1
e 282 284 1
e 282 285 1
e 282 311 1
e 282 397 1
e 282 597 1
e 283 284 1
e 283 285 1
e 283 286 1
e 283 310 1
e 284 285 1
e 284 286 1
e 284 287 1
e 284 304 1
e 284 290 1
e 284 318 1
e 284 321 1
e 284 595 1
e 285 286 1
e 285 287 1
e 285 288 1
e 285 659 1
e 285 395 1
e 285 558 1
e 286 287 1
e 286 288 1
e 286 289 1
e 286 356 1
e 286 691 1
e 286 386 1
e 286 409 1
e 286 657 1
e 287 288 1
e 287 289 1
e 287 290 1
e 287 693 1
e 287 345 1
e 288 289 1
e 288 290 1
e 288 291 1
e 288 497 1
e 289 290 1
e 289 291 1
e 289 292 1
e 289 484 1
e 289 629 1
e 289 556 1
e 289 332 1
e 290 291 1
e 290 292 1
e 290 293 1
e 290 654 1
e 290 325 1
e 290 399 1
e 290 551 1
e 291 292 1
e 291 293 1
e 291 294 1
e 291 540 1
e 292 293 1
e 292 294 1
e 292 295 1
e 292 407 1
e 292 528 1
e 292 322 1
e 292 436 1
e 293 294 1
e 293 295 1
e 293 296 1
e 294 295 1
e 294 296 1
e 294 297 1
e 294 440 1
e 294 482 1
e 294 465 1
e 294 603 1
e 295 296 1
e 295 297 1
e 295 298 1
e 295 629 1
e 296 297 1
e 296 298 1
e 296 299 1
e 296 314 1
e 296 472 1
e 297 298 1
e 297 299 1
e 297 300 1
e 297 678 1
e 298 299 1
e 298 300 1
e 298 301 1
e 298 428 1
e 298 405 1
e 298 442 1
e 298 519 1
e 298 629 1
e 299 300 1
e 299 301 1
e 299 302 1
e 299 479 1
e 300 301 1
e 300 302 1
e 300 303 1
e 300 529 1
e 300 564 1
e 301 302 1
e 301 303 1
e 301 304 1
e 302 303 1
e 302 304 1
e 302 305 1
e 303 304 1
e 303 305 1
e 303 306 1
e 303 671 1
e 303 607 1
e 304 305 1
e 304 306 1
e 304 307 1
e 304 392 1
e 304 413 1
e 305 306 1
e 305 307 1
e 305 308 1
e 305 474 1
e 306 307 1
e 306 308 1
e 306 309 1
e 306 655 1
e 306 446 1
e 306 605 1
e 306 643 1
e 307 308 1
e 307 309 1
e 307 310 1
e 307 599 1
e 307 658 1
e 308 309 1
e 308 310 1
e 308 311 1
e 308 602 1
e 308 367 1
e 309 310 1
e 309 311 1
e 309 312 1
e 309 682 1
e 309 359 1
e 310 311 1
e 310 312 1
e 310 313 1
e 310 518 1
e 311 312 1
e 311 313 1
e 311 314 1
e 311 519 1
e 312 313 1
e 312 314 1
e 312 315 1
e 312 462 1
e 313 314 1
e 313 315 1
e 313 316 1
e 313 687 1
e 313 357 1
e 314 315 1
e 314 316 1
e 314 317 1
e 314 597 1
e 315 316 1
e 315 317 1
e 315 318 1
e 315 420 1
e 315 599 1
e 316 317 1
e 316 318 1
e 316 319 1
e 316 362 1
e 316 522 1
e 317 318 1
e 317 319 1
e 317 320 1
e 317 652 1
e 317 493 1
e 318 319 1
e 318 320 1
e 318 321 1
e 318 534 1
e 318 368 1
e 318 500 1
e 318 639 1
e 318 692 1
e 319 320 1
e 319 321 1
e 319 322 1
e 319 443 1
e 319 626 1
e 319 605 1
e 319 609 1
e 320 321 1
e 320 322 1
e 320 323 1
e 320 476 1
e 321 322 1
e 321 323 1
e 321 324 1
e 321 472 1
e 321 564 1
e 322 323 1
e 322 324 1
e 322 325 1
e 322 400 1
e 322 560 1
e 323 324 1
e 323 325 1
e 323 326 1
e 323 344 1
e 323 462 1
e 324 325 1
e 324 326 1
e 324 327 1
e 324 598 1
e 324 437 1
e 324 524 1
e 325 326 1
e 325 327 1
e 325 328 1
e 325 597 1
e 326 327 1
e 326 328 1
e 326 329 1
e 327 328 1
e 327 329 1
e 327 330 1
e 327 649 1
e 327 607 1
e 328 329 1
e 328 330 1
e 328 331 1
e 328 470 1
e 328 660 1
e 329 330 1
e 329 331 1
e 329 332 1
e 329 473 1
e 330 331 1
e 330 332 1
e 330 333 1
e 330 583 1
e 330 673 1
e 331 332 1
e 331 333 1
e 331 334 1
e 332 333 1
e 332 334 1
e 332 335 1
e 332 390 1
e 332 577 1
e 333 334 1
e 333 335 1
e 333 336 1
e 334 335 1
e 334 336 1
e 334 337 1
e 334 366 1
e 334 431 1
e 334 514 1
e 335 336 1
e 335 337 1
e 335 338 1
e 335 649 1
e 336 337 1
e 336 338 1
e 336 339 1
e 336 685 1
e 337 338 1
e 337 339 1
e 337 340 1
e 337 377 1
e 337 659 1
e 338 339 1
e 338 340 1
e 338 341 1
e 338 646 1
e 339 340 1
e 339 341 1
e 339 342 1
e 339 658 1
e 339 472 1
e 339 504 1
e 339 626 1
e 340 341 1
e 340 342 1
e 340 343 1
e 340 362 1
e 340 454 1
e 341 342 1
e 341 343 1
e 341 344 1
e 341 357 1
e 341 392 1
e 342 343 1
e 342 344 1
e 342 345 1
e 342 488 1
e 342 549 1
e 343 344 1
e 343 345 1
e 343 346 1
e 343 386 1
e 343 619 1
e 343 501 1
e 343 669 1
e 344 345 1
e 344 346 1
e 344 347 1
e 344 516 1
e 345 346 1
e 345 347 1
e 345 348 1
e 346 347 1
e 346 348 1
e 346 349 1
e 346 381 1
e 346 530 1
e 347 348 1
e 347 349 1
e 347 350 1
e 347 580 1
e 347 604 1
e 347 403 1
e 347 536 1
e 347 553 1
e 348 349 1
e 348 350 1
e 348 351 1
e 348 476 1
e 349 350 1
e 349 351 1
e 349 352 1
e 349 498 1
e 350 351 1
e 350 352 1
e 350 353 1
e 350 539 1
e 351 352 1
e 351 353 1
e 351 354 1
e 351 581 1
e 352 353 1
e 352 354 1
e 352 355 1
e 352 673 1
e 352 603 1
e 353 354 1
e 353 355 1
e 353 356 1
e 353 514 1
e 353 440 1
e 353 648 1
e 354 355 1
e 354 356 1
e 354 357 1
e 355 356 1
e 355 357 1
e 355 358 1
e 355 634 1
e 355 565 1
e 356 357 1
e 356 358 1
e 356 359 1
e 356 700 1
e 356 428 1
e 357 358 1
e 357 359 1
e 357 360 1
e 357 449 1
e 357 552 1
e 358 359 1
e 358 360 1
e 358 361 1
e 358 577 1
e 359 360 1
e 359 361 1
e 359 362 1
e 359 455 1
e 359 422 1
e 360 361 1
e 360 362 1
e 360 363 1
e 360 475 1
e 360 505 1
e 360 528 1
e 360 675 1
e 361 362 1
e 361 363 1
e 361 364 1
e 361 579 1
e 361 410 1
e 362 363 1
e 362 364 1
e 362 365 1
e 362 421 1
e 362 540 1
e 363 364 1
e 363 365 1
e 363 366 1
e 363 608 1
e 363 510 1
e 364 365 1
e 364 366 1
e 364 367 1
e 364 476 1
e 364 388 1
e 364 503 1
e 365 366 1
e 365 367 1
e 365 368 1
e 365 416 1
e 365 676 1
e 365 389 1
e 366 367 1
e 366 368 1
e 366 369 1
e 366 382 1
e 366 518 1
e 366 617 1
e 367 368 1
e 367 369 1
e 367 370 1
e 368 369 1
e 368 370 1
e 368 371 1
e 368 450 1
e 369 370 1
e 369 371 1
e 369 372 1
e 369 521 1
e 370 371 1
e 370 372 1
e 370 373 1
e 370 386 1
e 370 529 1
e 371 372 1
e 371 373 1
e 371 374 1
e 371 574 1
e 371 530 1
e 371 554 1
e 371 614 1
e 372 373 1
e 372 374 1
e 372 375 1
e 372 532 1
e 372 609 1
e 373 374 1
e 373 375 1
e 373 376 1
e 373 448 1
e 373 580 1
e 373 659 1
e 374 375 1
e 374 376 1
e 374 377 1
e 375 376 1
e 375 377 1
e 375 378 1
e 375 622 1
e 375 514 1
e 375 543 1
e 376 377 1
e 376 378 1
e 376 379 1
e 376 626 1
e 376 573 1
e 376 534 1
e 377 378 1
e 377 379 1
e 377 380 1
e 378 379 1
e 378 380 1
e 378 381 1
e 378 445 1
e 378 610 1
e 379 380 1
e 379 381 1
e 379 382 1
e 379 480 1
e 379 595 1
e 380 381 1
e 380 382 1
e 380 383 1
e 380 522 1
e 381 382 1
e 381 383 1
e 381 384 1
e 381 654 1
e 381 403 1
e 381 509 1
e 381 530 1
e 381 670 1
e 382 383 1
e 382 384 1
e 382 385 1
e 382 452 1
e 383 384 1
e 383 385 1
e 383 386 1
e 383 479 1
e 383 410 1
e 383 590 1
e 384 385 1
e 384 386 1
e 384 387 1
e 384 452 1
e 385 386 1
e 385 387 1
e 385 388 1
e 385 445 1
e 386 387 1
e 386 388 1
e 386 389 1
e 387 388 1
e 387 389 1
e 387 390 1
e 387 473 1
e 388 389 1
e 388 390 1
e 388 391 1
e 388 432 1
e 388 443 1
e 388 647 1
e 389 390 1
e 389 391 1
e 389 392 1
e 389 645 1
e 389 423 1
e 390 391 1
e 390 392 1
e 390 393 1
e 390 548 1
e 391 392 1
e 391 393 1
e 391 394 1
e 392 393 1
e 392 394 1
e 392 395 1
e 392 690 1
e 393 394 1
e 393 395 1
e 393 396 1
e 393 544 1
e 393 688 1
e 394 395 1
e 394 396 1
e 394 397 1
e 394 625 1
e 395 396 1
e 395 397 1
e 395 398 1
e 395 462 1
e 395 492 1
e 395 504 1
e 395 546 1
e 395 592 1
e 396 397 1
e 396 398 1
e 396 399 1
e 396 551 1
e 397 398 1
e 397 399 1
e 397 400 1
e 397 477 1
e 397 451 1
e 397 526 1
e 398 399 1
e 398 400 1
e 398 401 1
e 398 631 1
e 399 400 1
e 399 401 1
e 399 402 1
e 399 436 1
e 400 401 1
e 400 402 1
e 400 403 1
e 400 531 1
e 400 544 1
e 401 402 1
e 401 403 1
e 401 404 1
e 401 417 1
e 402 403 1
e 402 404 1
e 402 405 1
e 402 690 1
e 402 540 1
e 403 404 1
e 403 405 1
e 403 406 1
e 404 405 1
e 404 406 1
e 404 407 1
e 405 406 1
e 405 407 1
e 405 408 1
e 406 407 1
e 406 408 1
e 406 409 1
e 406 410 1
e 406 557 1
e 407 408 1
e 407 409 1
e 407 410 1
e 407 677 1
e 408 409 1
e 408 410 1
e 408 411 1
e 408 575 1
e 408 605 1
e 409 410 1
e 409 411 1
e 409 412 1
e 409 667 1
e 410 411 1
e 410 412 1
e 410 413 1
e 410 462 1
e 411 412 1
e 411 413 1
e 411 414 1
e 411 514 1
e 412 413 1
e 412 414 1
e 412 415 1
e 413 414 1
e 413 415 1
e 413 416 1
e 413 596 1
e 414 415 1
e 414 416 1
e 414 417 1
e 415 416 1
e 415 417 1
e 415 418 1
e 415 689 1
e 416 417 1
e 416 418 1
e 416 419 1
e 417 418 1
e 417 419 1
e 417 420 1
e 417 591 1
e 417 495 1
e 418 419 1
e 418 420 1
e 418 421 1
e 418 533 1
e 419 420 1
e 419 421 1
e 419 422 1
e 420 421 1
e 420 422 1
e 420 423 1
e 420 461 1
e 421 422 1
e 421 423 1
e 421 424 1
e 421 688 1
e 421 694 1
e 422 423 1
e 422 424 1
e 422 425 1
e 422 566 1
e 423 424 1
e 423 425 1
e 423 426 1
e 424 425 1
e 424 426 1
e 424 427 1
e 424 584 1
e 424 640 1
e 425 426 1
e 425 427 1
e 425 428 1
e 425 649 1
e 425 675 1
e 426 427 1
e 426 428 1
e 426 429 1
e 426 645 1
e 426 698 1
e 427 428 1
e 427 429 1
e 427 430 1
e 428 429 1
e 428 430 1
e 428 431 1
e 429 430 1
e 429 431 1
e 429 432 1
e 429 572 1
e 430 431 1
e 430 432 1
e 430 433 1
e 430 659 1
e 431 432 1
e 431 433 1
e 431 434 1
e 431 502 1
e 432 433 1
e 432 434 1
e 432 435 1
e 432 525 1
e 433 434 1
e 433 435 1
e 433 436 1
e 433 613 1
e 433 526 1
e 434 435 1
e 434 436 1
e 434 437 1
e 434 447 1
e 434 494 1
e 435 436 1
e 435 437 1
e 435 438 1
e 436 437 1
e 436 438 1
e 436 439 1
e 436 633 1
e 436 496 1
e 436 601 1
e 436 692 1
e 437 438 1
e 437 439 1
e 437 440 1
e 437 672 1
e 437 456 1
e 438 439 1
e 438 440 1
e 438 441 1
e 438 569 1
e 439 440 1
e 439 441 1
e 439 442 1
e 439 605 1
e 439 686 1
e 440 441 1
e 440 442 1
e 440 443 1
e 441 442 1
e 441 443 1
e 441 444 1
e 441 669 1
e 441 522 1
e 442 443 1
e 442 444 1
e 442 445 1
e 442 638 1
e 442 516 1
e 443 444 1
e 443 445 1
e 443 446 1
e 443 449 1
e 444 445 1
e 444 446 1
e 444 447 1
e 444 645 1
e 445 446 1
e 445 447 1
e 445 448 1
e 445 505 1
e 446 447 1
e 446 448 1
e 446 449 1
e 446 575 1
e 447 448 1
e 447 449 1
e 447 450 1
e 447 514 1
e 447 613 1
e 448 449 1
e 448 450 1
e 448 451 1
e 448 695 1
e 449 450 1
e 449 451 1
e 449 452 1
e 449 655 1
e 449 697 1
e 450 451 1
e 450 452 1
e 450 453 1
e 451 452 1
e 451 453 1
e 451 454 1
e 451 600 1
e 452 453 1
e 452 454 1
e 452 455 1
e 452 673 1
e 452 594 1
e 453 454 1
e 453 455 1
e 453 456 1
e 454 455 1
e 454 456 1
e 454 457 1
e 454 539 1
e 455 456 1
e 455 457 1
e 455 458 1
e 455 608 1
e 456 457 1
e 456 458 1
e 456 459 1
e 457 458 1
e 457 459 1
e 457 460 1
e 457 470 1
e 457 679 1
e 458 459 1
e 458 460 1
e 458 461 1
e 458 644 1
e 459 460 1
e 459 461 1
e 459 462 1
e 460 461 1
e 460 462 1
e 460 463 1
e 460 602 1
e 460 547 1
e 461 462 1
e 461 463 1
e 461 464 1
e 461 533 1
e 462 463 1
e 462 464 1
e 462 465 1
e 462 470 1
e 462 608 1
e 463 464 1
e 463 465 1
e 463 466 1
e 464 465 1
e 464 466 1
e 464 467 1
e 464 469 1
e 465 466 1
e 465 467 1
e 465 468 1
e 465 669 1
e 465 522 1
e 466 467 1
e 466 468 1
e 466 469 1
e 466 549 1
e 466 681 1
e 467 468 1
e 467 469 1
e 467 470 1
e 468 469 1
e 468 470 1
e 468 471 1
e 468 632 1
e 468 498 1
e 469 470 1
e 469 471 1
e 469 472 1
e 469 641 1
e 470 471 1
e 470 472 1
e 470 473 1
e 470 535 1
e 470 692 1
e 471 472 1
e 471 473 1
e 471 474 1
e 471 636 1
e 471 526 1
e 472 473 1
e 472 474 1
e 472 475 1
e 472 670 1
e 473 474 1
e 473 475 1
e 473 476 1
e 474 475 1
e 474 476 1
e 474 477 1
e 474 541 1
e 474 665 1
e 474 579 1
e 475 476 1
e 475 477 1
e 475 478 1
e 476 477 1
e 476 478 1
e 476 479 1
e 476 650 1
e 476 572 1
e 477 478 1
e 477 479 1
e 477 480 1
e 477 555 1
e 477 634 1
e 478 479 1
e 478 480 1
e 478 481 1
e 478 535 1
e 479 480 1
e 479 481 1
e 479 482 1
e 479 647 1
e 479 672 1
e 480 481 1
e 480 482 1
e 480 483 1
e 481 482 1
e 481 483 1
e 481 484 1
e 482 483 1
e 482 484 1
e 482 485 1
e 482 557 1
e 483 484 1
e 483 485 1
e 483 486 1
e 484 485 1
e 484 486 1
e 484 487 1
e 485 486 1
e 485 487 1
e 485 488 1
e 485 655 1
e 486 487 1
e 486 488 1
e 486 489 1
e 486 638 1
e 487 488 1
e 487 489 1
e 487 490 1
e 487 697 1
e 488 489 1
e 488 490 1
e 488 491 1
e 488 540 1
e 488 614 1
e 489 490 1
e 489 491 1
e 489 492 1
e 490 491 1
e 490 492 1
e 490 493 1
e 490 502 1
e 491 492 1
e 491 493 1
e 491 494 1
e 491 508 1
e 491 603 1
e 492 493 1
e 492 494 1
e 492 495 1
e 492 560 1
e 492 635 1
e 493 494 1
e 493 495 1
e 493 496 1
e 494 495 1
e 494 496 1
e 494 497 1
e 494 641 1
e 495 496 1
e 495 497 1
e 495 498 1
e 495 667 1
e 496 497 1
e 496 498 1
e 496 499 1
e 497 498 1
e 497 499 1
e 497 500 1
e 497 649 1
e 498 499 1
e 498 500 1
e 498 501 1
e 498 570 1
e 499 500 1
e 499 501 1
e 499 502 1
e 500 501 1
e 500 502 1
e 500 503 1
e 500 636 1
e 500 541 1
e 501 502 1
e 501 503 1
e 501 504 1
e 501 654 1
e 501 581 1
e 501 627 1
e 502 503 1
e 502 504 1
e 502 505 1
e 503 504 1
e 503 505 1
e 503 506 1
e 503 681 1
e 504 505 1
e 504 506 1
e 504 507 1
e 504 547 1
e 505 506 1
e 505 507 1
e 505 508 1
e 505 512 1
e 506 507 1
e 506 508 1
e 506 509 1
e 506 675 1
e 507 508 1
e 507 509 1
e 507 510 1
e 507 530 1
e 507 601 1
e 508 509 1
e 508 510 1
e 508 511 1
e 509 510 1
e 509 511 1
e 509 512 1
e 509 537 1
e 509 671 1
e 510 511 1
e 510 512 1
e 510 513 1
e 510 647 1
e 511 512 1
e 511 513 1
e 511 514 1
e 512 513 1
e 512 514 1
e 512 515 1
e 512 636 1
e 512 663 1
e 512 604 1
e 513 514 1
e 513 515 1
e 513 516 1
e 513 599 1
e 514 515 1
e 514 516 1
e 514 517 1
e 514 627 1
e 515 516 1
e 515 517 1
e 515 518 1
e 516 517 1
e 516 518 1
e 516 519 1
e 516 654 1
e 516 550 1
e 517 518 1
e 517 519 1
e 517 520 1
e 518 519 1
e 518 520 1
e 518 521 1
e 518 643 1
e 519 520 1
e 519 521 1
e 519 522 1
e 520 521 1
e 520 522 1
e 520 523 1
e 521 522 1
e 521 523 1
e 521 524 1
e 522 523 1
e 522 524 1
e 522 525 1
e 523 524 1
e 523 525 1
e 523 526 1
e 523 588 1
e 524 525 1
e 524 526 1
e 524 527 1
e 524 665 1
e 524 690 1
e 525 526 1
e 525 527 1
e 525 528 1
e 526 527 1
e 526 528 1
e 526 529 1
e 527 528 1
e 527 529 1
e 527 530 1
e 528 529 1
e 528 530 1
e 528 531 1
e 529 530 1
e 529 531 1
e 529 532 1
e 529 629 1
e 529 559 1
e 530 531 1
e 530 532 1
e 530 533 1
e 530 661 1
e 531 532 1
e 531 533 1
e 531 534 1
e 531 663 1
e 532 533 1
e 532 534 1
e 532 535 1
e 532 593 1
e 533 534 1
e 533 535 1
e 533 536 1
e 533 537 1
e 534 535 1
e 534 536 1
e 534 537 1
e 534 605 1
e 535 536 1
e 535 537 1
e 535 538 1
e 535 603 1
e 535 564 1
e 535 601 1
e 536 537 1
e 536 538 1
e 536 539 1
e 536 618 1
e 537 538 1
e 537 539 1
e 537 540 1
e 537 568 1
e 538 539 1
e 538 540 1
e 538 541 1
e 539 540 1
e 539 541 1
e 539 542 1
e 539 565 1
e 539 562 1
e 540 541 1
e 540 542 1
e 540 543 1
e 541 542 1
e 541 543 1
e 541 544 1
e 542 543 1
e 542 544 1
e 542 545 1
e 542 577 1
e 542 677 1
e 543 544 1
e 543 545 1
e 543 546 1
e 543 565 1
e 544 545 1
e 544 546 1
e 544 547 1
e 545 546 1
e 545 547 1
e 545 548 1
e 546 547 1
e 546 548 1
e 546 549 1
e 546 669 1
e 547 548 1
e 547 549 1
e 547 550 1
e 547 567 1
e 548 549 1
e 548 550 1
e 548 551 1
e 549 550 1
e 549 551 1
e 549 552 1
e 550 551 1
e 550 552 1
e 550 553 1
e 550 566 1
e 551 552 1
e 551 553 1
e 551 554 1
e 552 553 1
e 552 554 1
e 552 555 1
e 553 554 1
e 553 555 1
e 553 556 1
e 553 577 1
e 554 555 1
e 554 556 1
e 554 557 1
e 554 558 1
e 555 556 1
e 555 557 1
e 555 558 1
e 555 565 1
e 556 557 1
e 556 558 1
e 556 559 1
e 556 589 1
e 557 558 1
e 557 559 1
e 557 560 1
e 557 582 1
e 557 609 1
e 558 559 1
e 558 560 1
e 558 561 1
e 559 560 1
e 559 561 1
e 559 562 1
e 559 699 1
e 560 561 1
e 560 562 1
e 560 563 1
e 560 666 1
e 561 562 1
e 561 563 1
e 561 564 1
e 561 700 1
e 562 563 1
e 562 564 1
e 562 565 1
e 562 645 1
e 563 564 1
e 563 565 1
e 563 566 1
e 563 571 1
e 563 654 1
e 564 565 1
e 564 566 1
e 564 567 1
e 565 566 1
e 565 567 1
e 565 568 1
e 566 567 1
e 566 568 1
e 566 569 1
e 567 568 1
e 567 569 1
e 567 570 1
e 567 617 1
e 568 569 1
e 568 570 1
e 568 571 1
e 569 570 1
e 569 571 1
e 569 572 1
e 570 571 1
e 570 572 1
e 570 573 1
e 571 572 1
e 571 573 1
e 571 574 1
e 572 573 1
e 572 574 1
e 572 575 1
e 572 579 1
e 573 574 1
e 573 575 1
e 573 576 1
e 573 615 1
e 573 656 1
e 574 575 1
e 574 576 1
e 574 577 1
e 574 616 1
e 575 576 1
e 575 577 1
e 575 578 1
e 576 577 1
e 576 578 1
e 576 579 1
e 576 644 1
e 577 578 1
e 577 579 1
e 577 580 1
e 577 665 1
e 578 579 1
e 578 580 1
e 578 581 1
e 578 693 1
e 579 580 1
e 579 581 1
e 579 582 1
e 580 581 1
e 580 582 1
e 580 583 1
e 580 642 1
e 581 582 1
e 581 583 1
e 581 584 1
e 581 628 1
e 582 583 1
e 582 584 1
e 582 585 1
e 583 584 1
e 583 585 1
e 583 586 1
e 584 585 1
e 584 586 1
e 584 587 1
e 584 688 1
e 585 586 1
e 585 587 1
e 585 588 1
e 586 587 1
e 586 588 1
e 586 589 1
e 587 588 1
e 587 589 1
e 587 590 1
e 588 589 1
e 588 590 1
e 588 591 1
e 589 590 1
e 589 591 1
e 589 592 1
e 589 674 1
e 590 591 1
e 590 592 1
e 590 593 1
e 591 592 1
e 591 593 1
e 591 594 1
e 592 593 1
e 592 594 1
e 592 595 1
e 592 685 1
e 593 594 1
e 593 595 1
e 593 596 1
e 593 632 1
e 594 595 1
e 594 596 1
e 594 597 1
e 595 596 1
e 595 597 1
e 595 598 1
e 595 601 1
e 595 629 1
e 596 597 1
e 596 598 1
e 596 599 1
e 596 694 1
e 597 598 1
e 597 599 1
e 597 600 1
e 598 599 1
e 598 600 1
e 598 601 1
e 598 689 1
e 599 600 1
e 599 601 1
e 599 602 1
e 600 601 1
e 600 602 1
e 600 603 1
e 601 602 1
e 601 603 1
e 601 604 1
e 602 603 1
e 602 604 1
e 602 605 1
e 602 608 1
e 602 665 1
e 603 604 1
e 603 605 1
e 603 606 1
e 604 605 1
e 604 606 1
e 604 607 1
e 604 695 1
e 605 606 1
e 605 607 1
e 605 608 1
e 606 607 1
e 606 608 1
e 606 609 1
e 606 689 1
e 607 608 1
e 607 609 1
e 607 610 1
e 607 676 1
e 607 687 1
e 607 690 1
e 608 609 1
e 608 610 1
e 608 611 1
e 609 610 1
e 609 611 1
e 609 612 1
e 609 672 1
e 609 676 1
e 610 611 1
e 610 612 1
e 610 613 1
e 611 612 1
e 611 613 1
e 611 614 1
e 612 613 1
e 612 614 1
e 612 615 1
e 612 623 1
e 613 614 1
e 613 615 1
e 613 616 1
e 614 615 1
e 614 616 1
e 614 617 1
e 615 616 1
e 615 617 1
e 615 618 1
e 616 617 1
e 616 618 1
e 616 619 1
e 617 618 1
e 617 619 1
e 617 620 1
e 618 619 1
e 618 620 1
e 618 621 1
e 618 651 1
e 619 620 1
e 619 621 1
e 619 622 1
e 620 621 1
e 620 622 1
e 620 623 1
e 620 676 1
e 621 622 1
e 621 623 1
e 621 624 1
e 622 623 1
e 622 624 1
e 622 625 1
e 622 636 1
e 623 624 1
e 623 625 1
e 623 626 1
e 623 638 1
e 623 641 1
e 624 625 1
e 624 626 1
e 624 627 1
e 625 626 1
e 625 627 1
e 625 628 1
e 626 627 1
e 626 628 1
e 626 629 1
e 627 628 1
e 627 629 1
e 627 630 1
e 628 629 1
e 628 630 1
e 628 631 1
e 628 671 1
e 629 630 1
e 629 631 1
e 629 632 1
e 630 631 1
e 630 632 1
e 630 633 1
e 631 632 1
e 631 633 1
e 631 634 1
e 631 697 1
e 632 633 1
e 632 634 1
e 632 635 1
e 633 634 1
e 633 635 1
e 633 636 1
e 633 639 1
e 634 635 1
e 634 636 1
e 634 637 1
e 634 677 1
e 635 636 1
e 635 637 1
e 635 638 1
e 635 642 1
e 636 637 1
e 636 638 1
e 636 639 1
e 637 638 1
e 637 639 1
e 637 640 1
e 638 639 1
e 638 640 1
e 638 641 1
e 638 643 1
e 639 640 1
e 639 641 1
e 639 642 1
e 640 641 1
e 640 642 1
e 640 643 1
e 641 642 1
e 641 643 1
e 641 644 1
e 642 643 1
e 642 644 1
e 642 645 1
e 643 644 1
e 643 645 1
e 643 646 1
e 643 668 1
e 644 645 1
e 644 646 1
e 644 647 1
e 644 682 1
e 645 646 1
e 645 647 1
e 645 648 1
e 646 647 1
e 646 648 1
e 646 649 1
e 647 648 1
e 647 649 1
e 647 650 1
e 648 649 1
e 648 650 1
e 648 651 1
e 649 650 1
e 649 651 1
e 649 652 1
e 650 651 1
e 650 652 1
e 650 653 1
e 651 652 1
e 651 653 1
e 651 654 1
e 652 653 1
e 652 654 1
e 652 655 1
e 653 654 1
e 653 655 1
e 653 656 1
e 654 655 1
e 654 656 1
e 654 657 1
e 655 656 1
e 655 657 1
e 655 658 1
e 656 657 1
e 656 658 1
e 656 659 1
e 657 658 1
e 657 659 1
e 657 660 1
e 657 686 1
e 658 659 1
e 658 660 1
e 658 661 1
e 659 660 1
e 659 661 1
e 659 662 1
e 659 679 1
e 660 661 1
e 660 662 1
e 660 663 1
e 661 662 1
e 661 663 1
e 661 664 1
e 662 663 1
e 662 664 1
e 662 665 1
e 663 664 1
e 663 665 1
e 663 666 1
e 664 665 1
e 664 666 1
e 664 667 1
e 665 666 1
e 665 667 1
e 665 668 1
e 665 694 1
e 666 667 1
e 666 668 1
e 666 669 1
e 667 668 1
e 667 669 1
e 667 670 1
e 668 669 1
e 668 670 1
e 668 671 1
e 669 670 1
e 669 671 1
e 669 672 1
e 670 671 1
e 670 672 1
e 670 673 1
e 671 672 1
e 671 673 1
e 671 674 1
e 672 673 1
e 672 674 1
e 672 675 1
e 673 674 1
e 673 675 1
e 673 676 1
e 674 675 1
e 674 676 1
e 674 677 1
e 675 676 1
e 675 677 1
e 675 678 1
e 675 692 1
e 676 677 1
e 676 678 1
e 676 679 1
e 677 678 1
e 677 679 1
e 677 680 1
e 678 679 1
e 678 680 1
e 678 681 1
e 679 680 1
e 679 681 1
e 679 682 1
e 680 681 1
e 680 682 1
e 680 683 1
e 681 682 1
e 681 683 1
e 681 684 1
e 682 683 1
e 682 684 1
e 682 685 1
e 683 684 1
e 683 685 1
e 683 686 1
e 684 685 1
e 684 686 1
e 684 687 1
e 685 686 1
e 685 687 1
e 685 688 1
e 686 687 1
e 686 688 1
e 686 689 1
e 687 688 1
e 687 689 1
e 687 690 1
e 688 689 1
e 688 690 1
e 688 691 1
e 689 690 1
e 689 691 1
e 689 692 1
e 690 691 1
e 690 692 1
e 690 693 1
e 691 692 1
e 691 693 1
e 691 694 1
e 692 693 1
e 692 694 1
e 692 695 1
e 693 694 1
e 693 695 1
e 693 696 1
e 694 695 1
e 694 696 1
e 694 697 1
e 695 696 1
e 695 697 1
e 695 698 1
e 696 697 1
e 696 698 1
e 696 699 1
e 697 698 1
e 697 699 1
e 697 700 1
e 698 699 1
e 698 700 1
e 699 700 1